c nIsolatedPIs 2
c maxPI 30
p cnf 162 397
c gate 31 -4 -19 0
-4 -31 0
-19 -31 0
4 19 31 0
c gate 32 -3 -18 0
-3 -32 0
-18 -32 0
3 18 32 0
c gate 33 -13 -28 0
-13 -33 0
-28 -33 0
13 28 33 0
c gate 34 13 28 0
13 -34 0
28 -34 0
-13 -28 34 0
c gate 35 -10 -25 0
-10 -35 0
-25 -35 0
10 25 35 0
c gate 36 9 24 0
9 -36 0
24 -36 0
-9 -24 36 0
c gate 37 10 25 0
10 -37 0
25 -37 0
-10 -25 37 0
c gate 38 -36 -37 0
-36 -38 0
-37 -38 0
36 37 38 0
c gate 39 7 22 0
7 -39 0
22 -39 0
-7 -22 39 0
c gate 40 8 23 0
8 -40 0
23 -40 0
-8 -23 40 0
c gate 41 1 16 0
1 -41 0
16 -41 0
-1 -16 41 0
c gate 42 -40 -41 0
-40 -42 0
-41 -42 0
40 41 42 0
c gate 43 -39 42 0
-39 -43 0
42 -43 0
39 -42 43 0
c gate 44 -9 -24 0
-9 -44 0
-24 -44 0
9 24 44 0
c gate 45 -8 -23 0
-8 -45 0
-23 -45 0
8 23 45 0
c gate 46 -44 -45 0
-44 -46 0
-45 -46 0
44 45 46 0
c gate 47 -43 46 0
-43 -47 0
46 -47 0
43 -46 47 0
c gate 48 38 -47 0
38 -48 0
-47 -48 0
-38 47 48 0
c gate 49 -35 -48 0
-35 -49 0
-48 -49 0
35 48 49 0
c gate 50 -7 -22 0
-7 -50 0
-22 -50 0
7 22 50 0
c gate 51 -40 50 0
-40 -51 0
50 -51 0
40 -50 51 0
c gate 52 38 51 0
38 -52 0
51 -52 0
-38 -51 52 0
c gate 53 49 -52 0
49 -53 0
-52 -53 0
-49 52 53 0
c gate 54 -12 27 0
-12 -54 0
27 -54 0
12 -27 54 0
c gate 55 12 -27 0
12 -55 0
-27 -55 0
-12 27 55 0
c gate 56 -54 -55 0
-54 -56 0
-55 -56 0
54 55 56 0
c gate 57 11 26 0
11 -57 0
26 -57 0
-11 -26 57 0
c gate 58 -56 -57 0
-56 -58 0
-57 -58 0
56 57 58 0
c gate 59 -53 58 0
-53 -59 0
58 -59 0
53 -58 59 0
c gate 60 -11 -26 0
-11 -60 0
-26 -60 0
11 26 60 0
c gate 61 -56 60 0
-56 -61 0
60 -61 0
56 -60 61 0
c gate 62 -12 -27 0
-12 -62 0
-27 -62 0
12 27 62 0
c gate 63 -61 -62 0
-61 -63 0
-62 -63 0
61 62 63 0
c gate 64 -59 63 0
-59 -64 0
63 -64 0
59 -63 64 0
c gate 65 -34 -64 0
-34 -65 0
-64 -65 0
34 64 65 0
c gate 66 -33 -65 0
-33 -66 0
-65 -66 0
33 65 66 0
c gate 67 -14 -29 0
-14 -67 0
-29 -67 0
14 29 67 0
c gate 68 66 -67 0
66 -68 0
-67 -68 0
-66 67 68 0
c gate 69 14 29 0
14 -69 0
29 -69 0
-14 -29 69 0
c gate 70 15 30 0
15 -70 0
30 -70 0
-15 -30 70 0
c gate 71 -69 -70 0
-69 -71 0
-70 -71 0
69 70 71 0
c gate 72 -68 71 0
-68 -72 0
71 -72 0
68 -71 72 0
c gate 73 -15 -30 0
-15 -73 0
-30 -73 0
15 30 73 0
c gate 74 -2 -17 0
-2 -74 0
-17 -74 0
2 17 74 0
c gate 75 -73 -74 0
-73 -75 0
-74 -75 0
73 74 75 0
c gate 76 -72 75 0
-72 -76 0
75 -76 0
72 -75 76 0
c gate 77 3 18 0
3 -77 0
18 -77 0
-3 -18 77 0
c gate 78 2 17 0
2 -78 0
17 -78 0
-2 -17 78 0
c gate 79 -77 -78 0
-77 -79 0
-78 -79 0
77 78 79 0
c gate 80 -76 79 0
-76 -80 0
79 -80 0
76 -79 80 0
c gate 81 -32 -80 0
-32 -81 0
-80 -81 0
32 80 81 0
c gate 82 -31 81 0
-31 -82 0
81 -82 0
31 -81 82 0
c gate 83 -6 -21 0
-6 -83 0
-21 -83 0
6 21 83 0
c gate 84 82 -83 0
82 -84 0
-83 -84 0
-82 83 84 0
c gate 85 5 20 0
5 -85 0
20 -85 0
-5 -20 85 0
c gate 86 4 19 0
4 -86 0
19 -86 0
-4 -19 86 0
c gate 87 -77 -86 0
-77 -87 0
-86 -87 0
77 86 87 0
c gate 88 -85 87 0
-85 -88 0
87 -88 0
85 -87 88 0
c gate 89 -84 88 0
-84 -89 0
88 -89 0
84 -88 89 0
c gate 90 -83 -88 0
-83 -90 0
-88 -90 0
83 88 90 0
c gate 91 -5 -20 0
-5 -91 0
-20 -91 0
5 20 91 0
c gate 92 6 21 0
6 -92 0
21 -92 0
-6 -21 92 0
c gate 93 -91 -92 0
-91 -93 0
-92 -93 0
91 92 93 0
c gate 94 -90 93 0
-90 -94 0
93 -94 0
90 -93 94 0
c gate 95 -89 94 0
-89 -95 0
94 -95 0
89 -94 95 0
c gate 96 77 -86 0
77 -96 0
-86 -96 0
-77 86 96 0
c gate 97 -82 96 0
-82 -97 0
96 -97 0
82 -96 97 0
c gate 98 81 -96 0
81 -98 0
-96 -98 0
-81 96 98 0
c gate 99 13 -28 0
13 -99 0
-28 -99 0
-13 28 99 0
c gate 100 14 -29 0
14 -100 0
-29 -100 0
-14 29 100 0
c gate 101 -99 -100 0
-99 -101 0
-100 -101 0
99 100 101 0
c gate 102 -39 -50 0
-39 -102 0
-50 -102 0
39 50 102 0
c gate 103 -1 16 0
-1 -103 0
16 -103 0
1 -16 103 0
c gate 104 -102 103 0
-102 -104 0
103 -104 0
102 -103 104 0
c gate 105 -8 23 0
-8 -105 0
23 -105 0
8 -23 105 0
c gate 106 -7 22 0
-7 -106 0
22 -106 0
7 -22 106 0
c gate 107 -105 -106 0
-105 -107 0
-106 -107 0
105 106 107 0
c gate 108 -104 107 0
-104 -108 0
107 -108 0
104 -107 108 0
c gate 109 9 -24 0
9 -109 0
-24 -109 0
-9 24 109 0
c gate 110 8 -23 0
8 -110 0
-23 -110 0
-8 23 110 0
c gate 111 -109 -110 0
-109 -111 0
-110 -111 0
109 110 111 0
c gate 112 -108 111 0
-108 -112 0
111 -112 0
108 -111 112 0
c gate 113 -9 24 0
-9 -113 0
24 -113 0
9 -24 113 0
c gate 114 -10 25 0
-10 -114 0
25 -114 0
10 -25 114 0
c gate 115 -113 -114 0
-113 -115 0
-114 -115 0
113 114 115 0
c gate 116 -112 115 0
-112 -116 0
115 -116 0
112 -115 116 0
c gate 117 -57 -60 0
-57 -117 0
-60 -117 0
57 60 117 0
c gate 118 10 -25 0
10 -118 0
-25 -118 0
-10 25 118 0
c gate 119 -117 -118 0
-117 -119 0
-118 -119 0
117 118 119 0
c gate 120 -116 119 0
-116 -120 0
119 -120 0
116 -119 120 0
c gate 121 11 56 0
11 -121 0
56 -121 0
-11 -56 121 0
c gate 122 117 -121 0
117 -122 0
-121 -122 0
-117 121 122 0
c gate 123 -120 -122 0
-120 -123 0
-122 -123 0
120 122 123 0
c gate 124 -55 -123 0
-55 -124 0
-123 -124 0
55 123 124 0
c gate 125 -13 28 0
-13 -125 0
28 -125 0
13 -28 125 0
c gate 126 -54 -125 0
-54 -126 0
-125 -126 0
54 125 126 0
c gate 127 -124 126 0
-124 -127 0
126 -127 0
124 -126 127 0
c gate 128 101 -127 0
101 -128 0
-127 -128 0
-101 127 128 0
c gate 129 -14 29 0
-14 -129 0
29 -129 0
14 -29 129 0
c gate 130 -15 30 0
-15 -130 0
30 -130 0
15 -30 130 0
c gate 131 -129 -130 0
-129 -131 0
-130 -131 0
129 130 131 0
c gate 132 -128 131 0
-128 -132 0
131 -132 0
128 -131 132 0
c gate 133 15 -30 0
15 -133 0
-30 -133 0
-15 30 133 0
c gate 134 -130 -133 0
-130 -134 0
-133 -134 0
130 133 134 0
c gate 135 -101 134 0
-101 -135 0
134 -135 0
101 -134 135 0
c gate 136 -74 -78 0
-74 -136 0
-78 -136 0
74 78 136 0
c gate 137 -135 136 0
-135 -137 0
136 -137 0
135 -136 137 0
c gate 138 -132 137 0
-132 -138 0
137 -138 0
132 -137 138 0
c gate 139 132 -137 0
132 -139 0
-137 -139 0
-132 137 139 0
c gate 140 -133 -139 0
-133 -140 0
-139 -140 0
133 139 140 0
c gate 141 -138 140 0
-138 -141 0
140 -141 0
138 -140 141 0
c gate 142 -33 -62 0
-33 -142 0
-62 -142 0
33 62 142 0
c gate 143 34 -69 0
34 -143 0
-69 -143 0
-34 69 143 0
c gate 144 -67 143 0
-67 -144 0
143 -144 0
67 -143 144 0
c gate 145 -142 -144 0
-142 -145 0
-144 -145 0
142 144 145 0
c gate 146 -66 -145 0
-66 -146 0
-145 -146 0
66 145 146 0
c gate 147 -49 -117 0
-49 -147 0
-117 -147 0
49 117 147 0
c gate 148 -53 -147 0
-53 -148 0
-147 -148 0
53 147 148 0
c gate 149 99 129 0
99 -149 0
129 -149 0
-99 -129 149 0
c gate 150 -61 -149 0
-61 -150 0
-149 -150 0
61 149 150 0
c gate 151 41 -102 0
41 -151 0
-102 -151 0
-41 102 151 0
c gate 152 55 -99 0
55 -152 0
-99 -152 0
-55 99 152 0
c gate 153 -125 152 0
-125 -153 0
152 -153 0
125 -152 153 0
c gate 154 -151 -153 0
-151 -154 0
-153 -154 0
151 153 154 0
c gate 155 150 154 0
150 -155 0
154 -155 0
-150 -154 155 0
c gate 156 -148 155 0
-148 -156 0
155 -156 0
148 -155 156 0
c gate 157 -123 156 0
-123 -157 0
156 -157 0
123 -156 157 0
c gate 158 -146 157 0
-146 -158 0
157 -158 0
146 -157 158 0
c gate 159 -141 158 0
-141 -159 0
158 -159 0
141 -158 159 0
c gate 160 -98 159 0
-98 -160 0
159 -160 0
98 -159 160 0
c gate 161 -97 160 0
-97 -161 0
160 -161 0
97 -160 161 0
c gate 162 -95 161 0
-95 -162 0
161 -162 0
95 -161 162 0
c PO
-162 0
